(set-info :category "industrial")
(set-info :status sat)
(declare-fun x00 () (_ BitVec 8))
(declare-fun x04 () (_ BitVec 8))
(declare-fun x05 () (_ BitVec 8))
(declare-fun x06 () (_ BitVec 8))
(declare-fun x07 () (_ BitVec 8))
(declare-fun x08 () (_ BitVec 8))
(declare-fun x12 () (_ BitVec 8))
(declare-fun x13 () (_ BitVec 8))
(declare-fun x15 () (_ BitVec 8))
(declare-fun x18 () (_ BitVec 8))
(declare-fun x20 () (_ BitVec 8))
(declare-fun x21 () (_ BitVec 8))
(declare-fun x22 () (_ BitVec 8))
(declare-fun x23 () (_ BitVec 8))
(declare-fun x24 () (_ BitVec 8))
(declare-fun x27 () (_ BitVec 8))
(declare-fun x28 () (_ BitVec 8))
(declare-fun x30 () (_ BitVec 8))
(declare-fun x31 () (_ BitVec 8))
(declare-fun x32 () (_ BitVec 8))
(declare-fun x34 () (_ BitVec 8))
(declare-fun x37 () (_ BitVec 8))
(declare-fun x38 () (_ BitVec 8))
(declare-fun x41 () (_ BitVec 8))
(declare-fun x42 () (_ BitVec 8))
(declare-fun x43 () (_ BitVec 8))
(declare-fun x44 () (_ BitVec 8))
(declare-fun x46 () (_ BitVec 8))
(declare-fun x52 () (_ BitVec 8))
(declare-fun x53 () (_ BitVec 8))
(declare-fun x56 () (_ BitVec 8))
(declare-fun x57 () (_ BitVec 8))
(declare-fun x60 () (_ BitVec 8))
(declare-fun x62 () (_ BitVec 8))
(declare-fun x64 () (_ BitVec 8))
(declare-fun x66 () (_ BitVec 8))
(declare-fun x68 () (_ BitVec 8))
(declare-fun x71 () (_ BitVec 8))
(declare-fun x72 () (_ BitVec 8))
(declare-fun x73 () (_ BitVec 8))
(declare-fun x74 () (_ BitVec 8))
(declare-fun x75 () (_ BitVec 8))
(declare-fun x76 () (_ BitVec 8))
(declare-fun x77 () (_ BitVec 8))
(declare-fun x80 () (_ BitVec 8))
(declare-fun x85 () (_ BitVec 8))
(declare-fun x86 () (_ BitVec 8))
(declare-fun x88 () (_ BitVec 8))
(assert (bvult x00 (_ bv9 8)))
(assert (bvult x04 (_ bv9 8)))
(assert (bvult x05 (_ bv9 8)))
(assert (bvult x06 (_ bv9 8)))
(assert (bvult x07 (_ bv9 8)))
(assert (bvult x08 (_ bv9 8)))
(assert (bvult x12 (_ bv9 8)))
(assert (bvult x13 (_ bv9 8)))
(assert (bvult x15 (_ bv9 8)))
(assert (bvult x18 (_ bv9 8)))
(assert (bvult x20 (_ bv9 8)))
(assert (bvult x21 (_ bv9 8)))
(assert (bvult x22 (_ bv9 8)))
(assert (bvult x23 (_ bv9 8)))
(assert (bvult x24 (_ bv9 8)))
(assert (bvult x27 (_ bv9 8)))
(assert (bvult x28 (_ bv9 8)))
(assert (bvult x30 (_ bv9 8)))
(assert (bvult x31 (_ bv9 8)))
(assert (bvult x32 (_ bv9 8)))
(assert (bvult x34 (_ bv9 8)))
(assert (bvult x37 (_ bv9 8)))
(assert (bvult x38 (_ bv9 8)))
(assert (bvult x41 (_ bv9 8)))
(assert (bvult x42 (_ bv9 8)))
(assert (bvult x43 (_ bv9 8)))
(assert (bvult x44 (_ bv9 8)))
(assert (bvult x46 (_ bv9 8)))
(assert (bvult x52 (_ bv9 8)))
(assert (bvult x53 (_ bv9 8)))
(assert (bvult x56 (_ bv9 8)))
(assert (bvult x57 (_ bv9 8)))
(assert (bvult x60 (_ bv9 8)))
(assert (bvult x62 (_ bv9 8)))
(assert (bvult x64 (_ bv9 8)))
(assert (bvult x66 (_ bv9 8)))
(assert (bvult x68 (_ bv9 8)))
(assert (bvult x71 (_ bv9 8)))
(assert (bvult x72 (_ bv9 8)))
(assert (bvult x73 (_ bv9 8)))
(assert (bvult x74 (_ bv9 8)))
(assert (bvult x75 (_ bv9 8)))
(assert (bvult x76 (_ bv9 8)))
(assert (bvult x77 (_ bv9 8)))
(assert (bvult x80 (_ bv9 8)))
(assert (bvult x85 (_ bv9 8)))
(assert (bvult x86 (_ bv9 8)))
(assert (bvult x88 (_ bv9 8)))
(assert (not (= x00 (_ bv3 8))))
(assert (not (= x00 (_ bv1 8))))
(assert (not (= x00 (_ bv4 8))))
(assert (not (= x00 x04)))
(assert (not (= x00 x05)))
(assert (not (= x00 x06)))
(assert (not (= x00 x07)))
(assert (not (= x00 x08)))
(assert (not (= (_ bv3 8) (_ bv1 8))))
(assert (not (= (_ bv3 8) (_ bv4 8))))
(assert (not (= (_ bv3 8) x04)))
(assert (not (= (_ bv3 8) x05)))
(assert (not (= (_ bv3 8) x06)))
(assert (not (= (_ bv3 8) x07)))
(assert (not (= (_ bv3 8) x08)))
(assert (not (= (_ bv1 8) (_ bv4 8))))
(assert (not (= (_ bv1 8) x04)))
(assert (not (= (_ bv1 8) x05)))
(assert (not (= (_ bv1 8) x06)))
(assert (not (= (_ bv1 8) x07)))
(assert (not (= (_ bv1 8) x08)))
(assert (not (= (_ bv4 8) x04)))
(assert (not (= (_ bv4 8) x05)))
(assert (not (= (_ bv4 8) x06)))
(assert (not (= (_ bv4 8) x07)))
(assert (not (= (_ bv4 8) x08)))
(assert (not (= x04 x05)))
(assert (not (= x04 x06)))
(assert (not (= x04 x07)))
(assert (not (= x04 x08)))
(assert (not (= x05 x06)))
(assert (not (= x05 x07)))
(assert (not (= x05 x08)))
(assert (not (= x06 x07)))
(assert (not (= x06 x08)))
(assert (not (= x07 x08)))
(assert (not (= (_ bv9 8) (_ bv2 8))))
(assert (not (= (_ bv9 8) x12)))
(assert (not (= (_ bv9 8) x13)))
(assert (not (= (_ bv9 8) (_ bv7 8))))
(assert (not (= (_ bv9 8) x15)))
(assert (not (= (_ bv9 8) (_ bv8 8))))
(assert (not (= (_ bv9 8) (_ bv5 8))))
(assert (not (= (_ bv9 8) x18)))
(assert (not (= (_ bv2 8) x12)))
(assert (not (= (_ bv2 8) x13)))
(assert (not (= (_ bv2 8) (_ bv7 8))))
(assert (not (= (_ bv2 8) x15)))
(assert (not (= (_ bv2 8) (_ bv8 8))))
(assert (not (= (_ bv2 8) (_ bv5 8))))
(assert (not (= (_ bv2 8) x18)))
(assert (not (= x12 x13)))
(assert (not (= x12 (_ bv7 8))))
(assert (not (= x12 x15)))
(assert (not (= x12 (_ bv8 8))))
(assert (not (= x12 (_ bv5 8))))
(assert (not (= x12 x18)))
(assert (not (= x13 (_ bv7 8))))
(assert (not (= x13 x15)))
(assert (not (= x13 (_ bv8 8))))
(assert (not (= x13 (_ bv5 8))))
(assert (not (= x13 x18)))
(assert (not (= (_ bv7 8) x15)))
(assert (not (= (_ bv7 8) (_ bv8 8))))
(assert (not (= (_ bv7 8) (_ bv5 8))))
(assert (not (= (_ bv7 8) x18)))
(assert (not (= x15 (_ bv8 8))))
(assert (not (= x15 (_ bv5 8))))
(assert (not (= x15 x18)))
(assert (not (= (_ bv8 8) (_ bv5 8))))
(assert (not (= (_ bv8 8) x18)))
(assert (not (= (_ bv5 8) x18)))
(assert (not (= x20 x21)))
(assert (not (= x20 x22)))
(assert (not (= x20 x23)))
(assert (not (= x20 x24)))
(assert (not (= x20 (_ bv6 8))))
(assert (not (= x20 (_ bv4 8))))
(assert (not (= x20 x27)))
(assert (not (= x20 x28)))
(assert (not (= x21 x22)))
(assert (not (= x21 x23)))
(assert (not (= x21 x24)))
(assert (not (= x21 (_ bv6 8))))
(assert (not (= x21 (_ bv4 8))))
(assert (not (= x21 x27)))
(assert (not (= x21 x28)))
(assert (not (= x22 x23)))
(assert (not (= x22 x24)))
(assert (not (= x22 (_ bv6 8))))
(assert (not (= x22 (_ bv4 8))))
(assert (not (= x22 x27)))
(assert (not (= x22 x28)))
(assert (not (= x23 x24)))
(assert (not (= x23 (_ bv6 8))))
(assert (not (= x23 (_ bv4 8))))
(assert (not (= x23 x27)))
(assert (not (= x23 x28)))
(assert (not (= x24 (_ bv6 8))))
(assert (not (= x24 (_ bv4 8))))
(assert (not (= x24 x27)))
(assert (not (= x24 x28)))
(assert (not (= (_ bv6 8) (_ bv4 8))))
(assert (not (= (_ bv6 8) x27)))
(assert (not (= (_ bv6 8) x28)))
(assert (not (= (_ bv4 8) x27)))
(assert (not (= (_ bv4 8) x28)))
(assert (not (= x27 x28)))
(assert (not (= x30 x31)))
(assert (not (= x30 x32)))
(assert (not (= x30 (_ bv5 8))))
(assert (not (= x30 x34)))
(assert (not (= x30 (_ bv9 8))))
(assert (not (= x30 (_ bv1 8))))
(assert (not (= x30 x37)))
(assert (not (= x30 x38)))
(assert (not (= x31 x32)))
(assert (not (= x31 (_ bv5 8))))
(assert (not (= x31 x34)))
(assert (not (= x31 (_ bv9 8))))
(assert (not (= x31 (_ bv1 8))))
(assert (not (= x31 x37)))
(assert (not (= x31 x38)))
(assert (not (= x32 (_ bv5 8))))
(assert (not (= x32 x34)))
(assert (not (= x32 (_ bv9 8))))
(assert (not (= x32 (_ bv1 8))))
(assert (not (= x32 x37)))
(assert (not (= x32 x38)))
(assert (not (= (_ bv5 8) x34)))
(assert (not (= (_ bv5 8) (_ bv9 8))))
(assert (not (= (_ bv5 8) (_ bv1 8))))
(assert (not (= (_ bv5 8) x37)))
(assert (not (= (_ bv5 8) x38)))
(assert (not (= x34 (_ bv9 8))))
(assert (not (= x34 (_ bv1 8))))
(assert (not (= x34 x37)))
(assert (not (= x34 x38)))
(assert (not (= (_ bv9 8) (_ bv1 8))))
(assert (not (= (_ bv9 8) x37)))
(assert (not (= (_ bv9 8) x38)))
(assert (not (= (_ bv1 8) x37)))
(assert (not (= (_ bv1 8) x38)))
(assert (not (= x37 x38)))
(assert (not (= (_ bv5 8) x41)))
(assert (not (= (_ bv5 8) x42)))
(assert (not (= (_ bv5 8) x43)))
(assert (not (= (_ bv5 8) x44)))
(assert (not (= (_ bv5 8) (_ bv8 8))))
(assert (not (= (_ bv5 8) x46)))
(assert (not (= (_ bv5 8) (_ bv2 8))))
(assert (not (= (_ bv5 8) (_ bv4 8))))
(assert (not (= x41 x42)))
(assert (not (= x41 x43)))
(assert (not (= x41 x44)))
(assert (not (= x41 (_ bv8 8))))
(assert (not (= x41 x46)))
(assert (not (= x41 (_ bv2 8))))
(assert (not (= x41 (_ bv4 8))))
(assert (not (= x42 x43)))
(assert (not (= x42 x44)))
(assert (not (= x42 (_ bv8 8))))
(assert (not (= x42 x46)))
(assert (not (= x42 (_ bv2 8))))
(assert (not (= x42 (_ bv4 8))))
(assert (not (= x43 x44)))
(assert (not (= x43 (_ bv8 8))))
(assert (not (= x43 x46)))
(assert (not (= x43 (_ bv2 8))))
(assert (not (= x43 (_ bv4 8))))
(assert (not (= x44 (_ bv8 8))))
(assert (not (= x44 x46)))
(assert (not (= x44 (_ bv2 8))))
(assert (not (= x44 (_ bv4 8))))
(assert (not (= (_ bv8 8) x46)))
(assert (not (= (_ bv8 8) (_ bv2 8))))
(assert (not (= (_ bv8 8) (_ bv4 8))))
(assert (not (= x46 (_ bv2 8))))
(assert (not (= x46 (_ bv4 8))))
(assert (not (= (_ bv2 8) (_ bv4 8))))
(assert (not (= (_ bv7 8) (_ bv4 8))))
(assert (not (= (_ bv7 8) x52)))
(assert (not (= (_ bv7 8) x53)))
(assert (not (= (_ bv7 8) (_ bv2 8))))
(assert (not (= (_ bv7 8) (_ bv1 8))))
(assert (not (= (_ bv7 8) x56)))
(assert (not (= (_ bv7 8) x57)))
(assert (not (= (_ bv7 8) (_ bv9 8))))
(assert (not (= (_ bv4 8) x52)))
(assert (not (= (_ bv4 8) x53)))
(assert (not (= (_ bv4 8) (_ bv2 8))))
(assert (not (= (_ bv4 8) (_ bv1 8))))
(assert (not (= (_ bv4 8) x56)))
(assert (not (= (_ bv4 8) x57)))
(assert (not (= (_ bv4 8) (_ bv9 8))))
(assert (not (= x52 x53)))
(assert (not (= x52 (_ bv2 8))))
(assert (not (= x52 (_ bv1 8))))
(assert (not (= x52 x56)))
(assert (not (= x52 x57)))
(assert (not (= x52 (_ bv9 8))))
(assert (not (= x53 (_ bv2 8))))
(assert (not (= x53 (_ bv1 8))))
(assert (not (= x53 x56)))
(assert (not (= x53 x57)))
(assert (not (= x53 (_ bv9 8))))
(assert (not (= (_ bv2 8) (_ bv1 8))))
(assert (not (= (_ bv2 8) x56)))
(assert (not (= (_ bv2 8) x57)))
(assert (not (= (_ bv2 8) (_ bv9 8))))
(assert (not (= (_ bv1 8) x56)))
(assert (not (= (_ bv1 8) x57)))
(assert (not (= (_ bv1 8) (_ bv9 8))))
(assert (not (= x56 x57)))
(assert (not (= x56 (_ bv9 8))))
(assert (not (= x57 (_ bv9 8))))
(assert (not (= x60 (_ bv8 8))))
(assert (not (= x60 x62)))
(assert (not (= x60 (_ bv6 8))))
(assert (not (= x60 x64)))
(assert (not (= x60 (_ bv2 8))))
(assert (not (= x60 x66)))
(assert (not (= x60 (_ bv3 8))))
(assert (not (= x60 x68)))
(assert (not (= (_ bv8 8) x62)))
(assert (not (= (_ bv8 8) (_ bv6 8))))
(assert (not (= (_ bv8 8) x64)))
(assert (not (= (_ bv8 8) (_ bv2 8))))
(assert (not (= (_ bv8 8) x66)))
(assert (not (= (_ bv8 8) (_ bv3 8))))
(assert (not (= (_ bv8 8) x68)))
(assert (not (= x62 (_ bv6 8))))
(assert (not (= x62 x64)))
(assert (not (= x62 (_ bv2 8))))
(assert (not (= x62 x66)))
(assert (not (= x62 (_ bv3 8))))
(assert (not (= x62 x68)))
(assert (not (= (_ bv6 8) x64)))
(assert (not (= (_ bv6 8) (_ bv2 8))))
(assert (not (= (_ bv6 8) x66)))
(assert (not (= (_ bv6 8) (_ bv3 8))))
(assert (not (= (_ bv6 8) x68)))
(assert (not (= x64 (_ bv2 8))))
(assert (not (= x64 x66)))
(assert (not (= x64 (_ bv3 8))))
(assert (not (= x64 x68)))
(assert (not (= (_ bv2 8) x66)))
(assert (not (= (_ bv2 8) (_ bv3 8))))
(assert (not (= (_ bv2 8) x68)))
(assert (not (= x66 (_ bv3 8))))
(assert (not (= x66 x68)))
(assert (not (= (_ bv3 8) x68)))
(assert (not (= (_ bv2 8) x71)))
(assert (not (= (_ bv2 8) x72)))
(assert (not (= (_ bv2 8) x73)))
(assert (not (= (_ bv2 8) x74)))
(assert (not (= (_ bv2 8) x75)))
(assert (not (= (_ bv2 8) x76)))
(assert (not (= (_ bv2 8) x77)))
(assert (not (= (_ bv2 8) (_ bv1 8))))
(assert (not (= x71 x72)))
(assert (not (= x71 x73)))
(assert (not (= x71 x74)))
(assert (not (= x71 x75)))
(assert (not (= x71 x76)))
(assert (not (= x71 x77)))
(assert (not (= x71 (_ bv1 8))))
(assert (not (= x72 x73)))
(assert (not (= x72 x74)))
(assert (not (= x72 x75)))
(assert (not (= x72 x76)))
(assert (not (= x72 x77)))
(assert (not (= x72 (_ bv1 8))))
(assert (not (= x73 x74)))
(assert (not (= x73 x75)))
(assert (not (= x73 x76)))
(assert (not (= x73 x77)))
(assert (not (= x73 (_ bv1 8))))
(assert (not (= x74 x75)))
(assert (not (= x74 x76)))
(assert (not (= x74 x77)))
(assert (not (= x74 (_ bv1 8))))
(assert (not (= x75 x76)))
(assert (not (= x75 x77)))
(assert (not (= x75 (_ bv1 8))))
(assert (not (= x76 x77)))
(assert (not (= x76 (_ bv1 8))))
(assert (not (= x77 (_ bv1 8))))
(assert (not (= x80 (_ bv5 8))))
(assert (not (= x80 (_ bv6 8))))
(assert (not (= x80 (_ bv9 8))))
(assert (not (= x80 (_ bv3 8))))
(assert (not (= x80 x85)))
(assert (not (= x80 x86)))
(assert (not (= x80 (_ bv7 8))))
(assert (not (= x80 x88)))
(assert (not (= (_ bv5 8) (_ bv6 8))))
(assert (not (= (_ bv5 8) (_ bv9 8))))
(assert (not (= (_ bv5 8) (_ bv3 8))))
(assert (not (= (_ bv5 8) x85)))
(assert (not (= (_ bv5 8) x86)))
(assert (not (= (_ bv5 8) (_ bv7 8))))
(assert (not (= (_ bv5 8) x88)))
(assert (not (= (_ bv6 8) (_ bv9 8))))
(assert (not (= (_ bv6 8) (_ bv3 8))))
(assert (not (= (_ bv6 8) x85)))
(assert (not (= (_ bv6 8) x86)))
(assert (not (= (_ bv6 8) (_ bv7 8))))
(assert (not (= (_ bv6 8) x88)))
(assert (not (= (_ bv9 8) (_ bv3 8))))
(assert (not (= (_ bv9 8) x85)))
(assert (not (= (_ bv9 8) x86)))
(assert (not (= (_ bv9 8) (_ bv7 8))))
(assert (not (= (_ bv9 8) x88)))
(assert (not (= (_ bv3 8) x85)))
(assert (not (= (_ bv3 8) x86)))
(assert (not (= (_ bv3 8) (_ bv7 8))))
(assert (not (= (_ bv3 8) x88)))
(assert (not (= x85 x86)))
(assert (not (= x85 (_ bv7 8))))
(assert (not (= x85 x88)))
(assert (not (= x86 (_ bv7 8))))
(assert (not (= x86 x88)))
(assert (not (= (_ bv7 8) x88)))
(assert (not (= x00 (_ bv9 8))))
(assert (not (= x00 x20)))
(assert (not (= x00 x30)))
(assert (not (= x00 (_ bv5 8))))
(assert (not (= x00 (_ bv7 8))))
(assert (not (= x00 x60)))
(assert (not (= x00 (_ bv2 8))))
(assert (not (= x00 x80)))
(assert (not (= (_ bv9 8) x20)))
(assert (not (= (_ bv9 8) x30)))
(assert (not (= (_ bv9 8) (_ bv5 8))))
(assert (not (= (_ bv9 8) (_ bv7 8))))
(assert (not (= (_ bv9 8) x60)))
(assert (not (= (_ bv9 8) (_ bv2 8))))
(assert (not (= (_ bv9 8) x80)))
(assert (not (= x20 x30)))
(assert (not (= x20 (_ bv5 8))))
(assert (not (= x20 (_ bv7 8))))
(assert (not (= x20 x60)))
(assert (not (= x20 (_ bv2 8))))
(assert (not (= x20 x80)))
(assert (not (= x30 (_ bv5 8))))
(assert (not (= x30 (_ bv7 8))))
(assert (not (= x30 x60)))
(assert (not (= x30 (_ bv2 8))))
(assert (not (= x30 x80)))
(assert (not (= (_ bv5 8) (_ bv7 8))))
(assert (not (= (_ bv5 8) x60)))
(assert (not (= (_ bv5 8) (_ bv2 8))))
(assert (not (= (_ bv5 8) x80)))
(assert (not (= (_ bv7 8) x60)))
(assert (not (= (_ bv7 8) (_ bv2 8))))
(assert (not (= (_ bv7 8) x80)))
(assert (not (= x60 (_ bv2 8))))
(assert (not (= x60 x80)))
(assert (not (= (_ bv2 8) x80)))
(assert (not (= (_ bv3 8) (_ bv2 8))))
(assert (not (= (_ bv3 8) x21)))
(assert (not (= (_ bv3 8) x31)))
(assert (not (= (_ bv3 8) x41)))
(assert (not (= (_ bv3 8) (_ bv4 8))))
(assert (not (= (_ bv3 8) (_ bv8 8))))
(assert (not (= (_ bv3 8) x71)))
(assert (not (= (_ bv3 8) (_ bv5 8))))
(assert (not (= (_ bv2 8) x21)))
(assert (not (= (_ bv2 8) x31)))
(assert (not (= (_ bv2 8) x41)))
(assert (not (= (_ bv2 8) (_ bv4 8))))
(assert (not (= (_ bv2 8) (_ bv8 8))))
(assert (not (= (_ bv2 8) x71)))
(assert (not (= (_ bv2 8) (_ bv5 8))))
(assert (not (= x21 x31)))
(assert (not (= x21 x41)))
(assert (not (= x21 (_ bv4 8))))
(assert (not (= x21 (_ bv8 8))))
(assert (not (= x21 x71)))
(assert (not (= x21 (_ bv5 8))))
(assert (not (= x31 x41)))
(assert (not (= x31 (_ bv4 8))))
(assert (not (= x31 (_ bv8 8))))
(assert (not (= x31 x71)))
(assert (not (= x31 (_ bv5 8))))
(assert (not (= x41 (_ bv4 8))))
(assert (not (= x41 (_ bv8 8))))
(assert (not (= x41 x71)))
(assert (not (= x41 (_ bv5 8))))
(assert (not (= (_ bv4 8) (_ bv8 8))))
(assert (not (= (_ bv4 8) x71)))
(assert (not (= (_ bv4 8) (_ bv5 8))))
(assert (not (= (_ bv8 8) x71)))
(assert (not (= (_ bv8 8) (_ bv5 8))))
(assert (not (= x71 (_ bv5 8))))
(assert (not (= (_ bv1 8) x12)))
(assert (not (= (_ bv1 8) x22)))
(assert (not (= (_ bv1 8) x32)))
(assert (not (= (_ bv1 8) x42)))
(assert (not (= (_ bv1 8) x52)))
(assert (not (= (_ bv1 8) x62)))
(assert (not (= (_ bv1 8) x72)))
(assert (not (= (_ bv1 8) (_ bv6 8))))
(assert (not (= x12 x22)))
(assert (not (= x12 x32)))
(assert (not (= x12 x42)))
(assert (not (= x12 x52)))
(assert (not (= x12 x62)))
(assert (not (= x12 x72)))
(assert (not (= x12 (_ bv6 8))))
(assert (not (= x22 x32)))
(assert (not (= x22 x42)))
(assert (not (= x22 x52)))
(assert (not (= x22 x62)))
(assert (not (= x22 x72)))
(assert (not (= x22 (_ bv6 8))))
(assert (not (= x32 x42)))
(assert (not (= x32 x52)))
(assert (not (= x32 x62)))
(assert (not (= x32 x72)))
(assert (not (= x32 (_ bv6 8))))
(assert (not (= x42 x52)))
(assert (not (= x42 x62)))
(assert (not (= x42 x72)))
(assert (not (= x42 (_ bv6 8))))
(assert (not (= x52 x62)))
(assert (not (= x52 x72)))
(assert (not (= x52 (_ bv6 8))))
(assert (not (= x62 x72)))
(assert (not (= x62 (_ bv6 8))))
(assert (not (= x72 (_ bv6 8))))
(assert (not (= (_ bv4 8) x13)))
(assert (not (= (_ bv4 8) x23)))
(assert (not (= (_ bv4 8) (_ bv5 8))))
(assert (not (= (_ bv4 8) x43)))
(assert (not (= (_ bv4 8) x53)))
(assert (not (= (_ bv4 8) (_ bv6 8))))
(assert (not (= (_ bv4 8) x73)))
(assert (not (= (_ bv4 8) (_ bv9 8))))
(assert (not (= x13 x23)))
(assert (not (= x13 (_ bv5 8))))
(assert (not (= x13 x43)))
(assert (not (= x13 x53)))
(assert (not (= x13 (_ bv6 8))))
(assert (not (= x13 x73)))
(assert (not (= x13 (_ bv9 8))))
(assert (not (= x23 (_ bv5 8))))
(assert (not (= x23 x43)))
(assert (not (= x23 x53)))
(assert (not (= x23 (_ bv6 8))))
(assert (not (= x23 x73)))
(assert (not (= x23 (_ bv9 8))))
(assert (not (= (_ bv5 8) x43)))
(assert (not (= (_ bv5 8) x53)))
(assert (not (= (_ bv5 8) (_ bv6 8))))
(assert (not (= (_ bv5 8) x73)))
(assert (not (= (_ bv5 8) (_ bv9 8))))
(assert (not (= x43 x53)))
(assert (not (= x43 (_ bv6 8))))
(assert (not (= x43 x73)))
(assert (not (= x43 (_ bv9 8))))
(assert (not (= x53 (_ bv6 8))))
(assert (not (= x53 x73)))
(assert (not (= x53 (_ bv9 8))))
(assert (not (= (_ bv6 8) x73)))
(assert (not (= (_ bv6 8) (_ bv9 8))))
(assert (not (= x73 (_ bv9 8))))
(assert (not (= x04 (_ bv7 8))))
(assert (not (= x04 x24)))
(assert (not (= x04 x34)))
(assert (not (= x04 x44)))
(assert (not (= x04 (_ bv2 8))))
(assert (not (= x04 x64)))
(assert (not (= x04 x74)))
(assert (not (= x04 (_ bv3 8))))
(assert (not (= (_ bv7 8) x24)))
(assert (not (= (_ bv7 8) x34)))
(assert (not (= (_ bv7 8) x44)))
(assert (not (= (_ bv7 8) (_ bv2 8))))
(assert (not (= (_ bv7 8) x64)))
(assert (not (= (_ bv7 8) x74)))
(assert (not (= (_ bv7 8) (_ bv3 8))))
(assert (not (= x24 x34)))
(assert (not (= x24 x44)))
(assert (not (= x24 (_ bv2 8))))
(assert (not (= x24 x64)))
(assert (not (= x24 x74)))
(assert (not (= x24 (_ bv3 8))))
(assert (not (= x34 x44)))
(assert (not (= x34 (_ bv2 8))))
(assert (not (= x34 x64)))
(assert (not (= x34 x74)))
(assert (not (= x34 (_ bv3 8))))
(assert (not (= x44 (_ bv2 8))))
(assert (not (= x44 x64)))
(assert (not (= x44 x74)))
(assert (not (= x44 (_ bv3 8))))
(assert (not (= (_ bv2 8) x64)))
(assert (not (= (_ bv2 8) x74)))
(assert (not (= (_ bv2 8) (_ bv3 8))))
(assert (not (= x64 x74)))
(assert (not (= x64 (_ bv3 8))))
(assert (not (= x74 (_ bv3 8))))
(assert (not (= x05 x15)))
(assert (not (= x05 (_ bv6 8))))
(assert (not (= x05 (_ bv9 8))))
(assert (not (= x05 (_ bv8 8))))
(assert (not (= x05 (_ bv1 8))))
(assert (not (= x05 (_ bv2 8))))
(assert (not (= x05 x75)))
(assert (not (= x05 x85)))
(assert (not (= x15 (_ bv6 8))))
(assert (not (= x15 (_ bv9 8))))
(assert (not (= x15 (_ bv8 8))))
(assert (not (= x15 (_ bv1 8))))
(assert (not (= x15 (_ bv2 8))))
(assert (not (= x15 x75)))
(assert (not (= x15 x85)))
(assert (not (= (_ bv6 8) (_ bv9 8))))
(assert (not (= (_ bv6 8) (_ bv8 8))))
(assert (not (= (_ bv6 8) (_ bv1 8))))
(assert (not (= (_ bv6 8) (_ bv2 8))))
(assert (not (= (_ bv6 8) x75)))
(assert (not (= (_ bv6 8) x85)))
(assert (not (= (_ bv9 8) (_ bv8 8))))
(assert (not (= (_ bv9 8) (_ bv1 8))))
(assert (not (= (_ bv9 8) (_ bv2 8))))
(assert (not (= (_ bv9 8) x75)))
(assert (not (= (_ bv9 8) x85)))
(assert (not (= (_ bv8 8) (_ bv1 8))))
(assert (not (= (_ bv8 8) (_ bv2 8))))
(assert (not (= (_ bv8 8) x75)))
(assert (not (= (_ bv8 8) x85)))
(assert (not (= (_ bv1 8) (_ bv2 8))))
(assert (not (= (_ bv1 8) x75)))
(assert (not (= (_ bv1 8) x85)))
(assert (not (= (_ bv2 8) x75)))
(assert (not (= (_ bv2 8) x85)))
(assert (not (= x75 x85)))
(assert (not (= x06 (_ bv8 8))))
(assert (not (= x06 (_ bv4 8))))
(assert (not (= x06 (_ bv1 8))))
(assert (not (= x06 x46)))
(assert (not (= x06 x56)))
(assert (not (= x06 x66)))
(assert (not (= x06 x76)))
(assert (not (= x06 x86)))
(assert (not (= (_ bv8 8) (_ bv4 8))))
(assert (not (= (_ bv8 8) (_ bv1 8))))
(assert (not (= (_ bv8 8) x46)))
(assert (not (= (_ bv8 8) x56)))
(assert (not (= (_ bv8 8) x66)))
(assert (not (= (_ bv8 8) x76)))
(assert (not (= (_ bv8 8) x86)))
(assert (not (= (_ bv4 8) (_ bv1 8))))
(assert (not (= (_ bv4 8) x46)))
(assert (not (= (_ bv4 8) x56)))
(assert (not (= (_ bv4 8) x66)))
(assert (not (= (_ bv4 8) x76)))
(assert (not (= (_ bv4 8) x86)))
(assert (not (= (_ bv1 8) x46)))
(assert (not (= (_ bv1 8) x56)))
(assert (not (= (_ bv1 8) x66)))
(assert (not (= (_ bv1 8) x76)))
(assert (not (= (_ bv1 8) x86)))
(assert (not (= x46 x56)))
(assert (not (= x46 x66)))
(assert (not (= x46 x76)))
(assert (not (= x46 x86)))
(assert (not (= x56 x66)))
(assert (not (= x56 x76)))
(assert (not (= x56 x86)))
(assert (not (= x66 x76)))
(assert (not (= x66 x86)))
(assert (not (= x76 x86)))
(assert (not (= x07 (_ bv5 8))))
(assert (not (= x07 x27)))
(assert (not (= x07 x37)))
(assert (not (= x07 (_ bv2 8))))
(assert (not (= x07 x57)))
(assert (not (= x07 (_ bv3 8))))
(assert (not (= x07 x77)))
(assert (not (= x07 (_ bv7 8))))
(assert (not (= (_ bv5 8) x27)))
(assert (not (= (_ bv5 8) x37)))
(assert (not (= (_ bv5 8) (_ bv2 8))))
(assert (not (= (_ bv5 8) x57)))
(assert (not (= (_ bv5 8) (_ bv3 8))))
(assert (not (= (_ bv5 8) x77)))
(assert (not (= (_ bv5 8) (_ bv7 8))))
(assert (not (= x27 x37)))
(assert (not (= x27 (_ bv2 8))))
(assert (not (= x27 x57)))
(assert (not (= x27 (_ bv3 8))))
(assert (not (= x27 x77)))
(assert (not (= x27 (_ bv7 8))))
(assert (not (= x37 (_ bv2 8))))
(assert (not (= x37 x57)))
(assert (not (= x37 (_ bv3 8))))
(assert (not (= x37 x77)))
(assert (not (= x37 (_ bv7 8))))
(assert (not (= (_ bv2 8) x57)))
(assert (not (= (_ bv2 8) (_ bv3 8))))
(assert (not (= (_ bv2 8) x77)))
(assert (not (= (_ bv2 8) (_ bv7 8))))
(assert (not (= x57 (_ bv3 8))))
(assert (not (= x57 x77)))
(assert (not (= x57 (_ bv7 8))))
(assert (not (= (_ bv3 8) x77)))
(assert (not (= (_ bv3 8) (_ bv7 8))))
(assert (not (= x77 (_ bv7 8))))
(assert (not (= x08 x18)))
(assert (not (= x08 x28)))
(assert (not (= x08 x38)))
(assert (not (= x08 (_ bv4 8))))
(assert (not (= x08 (_ bv9 8))))
(assert (not (= x08 x68)))
(assert (not (= x08 (_ bv1 8))))
(assert (not (= x08 x88)))
(assert (not (= x18 x28)))
(assert (not (= x18 x38)))
(assert (not (= x18 (_ bv4 8))))
(assert (not (= x18 (_ bv9 8))))
(assert (not (= x18 x68)))
(assert (not (= x18 (_ bv1 8))))
(assert (not (= x18 x88)))
(assert (not (= x28 x38)))
(assert (not (= x28 (_ bv4 8))))
(assert (not (= x28 (_ bv9 8))))
(assert (not (= x28 x68)))
(assert (not (= x28 (_ bv1 8))))
(assert (not (= x28 x88)))
(assert (not (= x38 (_ bv4 8))))
(assert (not (= x38 (_ bv9 8))))
(assert (not (= x38 x68)))
(assert (not (= x38 (_ bv1 8))))
(assert (not (= x38 x88)))
(assert (not (= (_ bv4 8) (_ bv9 8))))
(assert (not (= (_ bv4 8) x68)))
(assert (not (= (_ bv4 8) (_ bv1 8))))
(assert (not (= (_ bv4 8) x88)))
(assert (not (= (_ bv9 8) x68)))
(assert (not (= (_ bv9 8) (_ bv1 8))))
(assert (not (= (_ bv9 8) x88)))
(assert (not (= x68 (_ bv1 8))))
(assert (not (= x68 x88)))
(assert (not (= (_ bv1 8) x88)))
(assert (not (= x00 (_ bv3 8))))
(assert (not (= x00 (_ bv1 8))))
(assert (not (= x00 (_ bv9 8))))
(assert (not (= x00 (_ bv2 8))))
(assert (not (= x00 x12)))
(assert (not (= x00 x20)))
(assert (not (= x00 x21)))
(assert (not (= x00 x22)))
(assert (not (= (_ bv3 8) (_ bv1 8))))
(assert (not (= (_ bv3 8) (_ bv9 8))))
(assert (not (= (_ bv3 8) (_ bv2 8))))
(assert (not (= (_ bv3 8) x12)))
(assert (not (= (_ bv3 8) x20)))
(assert (not (= (_ bv3 8) x21)))
(assert (not (= (_ bv3 8) x22)))
(assert (not (= (_ bv1 8) (_ bv9 8))))
(assert (not (= (_ bv1 8) (_ bv2 8))))
(assert (not (= (_ bv1 8) x12)))
(assert (not (= (_ bv1 8) x20)))
(assert (not (= (_ bv1 8) x21)))
(assert (not (= (_ bv1 8) x22)))
(assert (not (= (_ bv9 8) (_ bv2 8))))
(assert (not (= (_ bv9 8) x12)))
(assert (not (= (_ bv9 8) x20)))
(assert (not (= (_ bv9 8) x21)))
(assert (not (= (_ bv9 8) x22)))
(assert (not (= (_ bv2 8) x12)))
(assert (not (= (_ bv2 8) x20)))
(assert (not (= (_ bv2 8) x21)))
(assert (not (= (_ bv2 8) x22)))
(assert (not (= x12 x20)))
(assert (not (= x12 x21)))
(assert (not (= x12 x22)))
(assert (not (= x20 x21)))
(assert (not (= x20 x22)))
(assert (not (= x21 x22)))
(assert (not (= (_ bv4 8) x04)))
(assert (not (= (_ bv4 8) x05)))
(assert (not (= (_ bv4 8) x13)))
(assert (not (= (_ bv4 8) (_ bv7 8))))
(assert (not (= (_ bv4 8) x15)))
(assert (not (= (_ bv4 8) x23)))
(assert (not (= (_ bv4 8) x24)))
(assert (not (= (_ bv4 8) (_ bv6 8))))
(assert (not (= x04 x05)))
(assert (not (= x04 x13)))
(assert (not (= x04 (_ bv7 8))))
(assert (not (= x04 x15)))
(assert (not (= x04 x23)))
(assert (not (= x04 x24)))
(assert (not (= x04 (_ bv6 8))))
(assert (not (= x05 x13)))
(assert (not (= x05 (_ bv7 8))))
(assert (not (= x05 x15)))
(assert (not (= x05 x23)))
(assert (not (= x05 x24)))
(assert (not (= x05 (_ bv6 8))))
(assert (not (= x13 (_ bv7 8))))
(assert (not (= x13 x15)))
(assert (not (= x13 x23)))
(assert (not (= x13 x24)))
(assert (not (= x13 (_ bv6 8))))
(assert (not (= (_ bv7 8) x15)))
(assert (not (= (_ bv7 8) x23)))
(assert (not (= (_ bv7 8) x24)))
(assert (not (= (_ bv7 8) (_ bv6 8))))
(assert (not (= x15 x23)))
(assert (not (= x15 x24)))
(assert (not (= x15 (_ bv6 8))))
(assert (not (= x23 x24)))
(assert (not (= x23 (_ bv6 8))))
(assert (not (= x24 (_ bv6 8))))
(assert (not (= x06 x07)))
(assert (not (= x06 x08)))
(assert (not (= x06 (_ bv8 8))))
(assert (not (= x06 (_ bv5 8))))
(assert (not (= x06 x18)))
(assert (not (= x06 (_ bv4 8))))
(assert (not (= x06 x27)))
(assert (not (= x06 x28)))
(assert (not (= x07 x08)))
(assert (not (= x07 (_ bv8 8))))
(assert (not (= x07 (_ bv5 8))))
(assert (not (= x07 x18)))
(assert (not (= x07 (_ bv4 8))))
(assert (not (= x07 x27)))
(assert (not (= x07 x28)))
(assert (not (= x08 (_ bv8 8))))
(assert (not (= x08 (_ bv5 8))))
(assert (not (= x08 x18)))
(assert (not (= x08 (_ bv4 8))))
(assert (not (= x08 x27)))
(assert (not (= x08 x28)))
(assert (not (= (_ bv8 8) (_ bv5 8))))
(assert (not (= (_ bv8 8) x18)))
(assert (not (= (_ bv8 8) (_ bv4 8))))
(assert (not (= (_ bv8 8) x27)))
(assert (not (= (_ bv8 8) x28)))
(assert (not (= (_ bv5 8) x18)))
(assert (not (= (_ bv5 8) (_ bv4 8))))
(assert (not (= (_ bv5 8) x27)))
(assert (not (= (_ bv5 8) x28)))
(assert (not (= x18 (_ bv4 8))))
(assert (not (= x18 x27)))
(assert (not (= x18 x28)))
(assert (not (= (_ bv4 8) x27)))
(assert (not (= (_ bv4 8) x28)))
(assert (not (= x27 x28)))
(assert (not (= x30 x31)))
(assert (not (= x30 x32)))
(assert (not (= x30 (_ bv5 8))))
(assert (not (= x30 x41)))
(assert (not (= x30 x42)))
(assert (not (= x30 (_ bv7 8))))
(assert (not (= x30 (_ bv4 8))))
(assert (not (= x30 x52)))
(assert (not (= x31 x32)))
(assert (not (= x31 (_ bv5 8))))
(assert (not (= x31 x41)))
(assert (not (= x31 x42)))
(assert (not (= x31 (_ bv7 8))))
(assert (not (= x31 (_ bv4 8))))
(assert (not (= x31 x52)))
(assert (not (= x32 (_ bv5 8))))
(assert (not (= x32 x41)))
(assert (not (= x32 x42)))
(assert (not (= x32 (_ bv7 8))))
(assert (not (= x32 (_ bv4 8))))
(assert (not (= x32 x52)))
(assert (not (= (_ bv5 8) x41)))
(assert (not (= (_ bv5 8) x42)))
(assert (not (= (_ bv5 8) (_ bv7 8))))
(assert (not (= (_ bv5 8) (_ bv4 8))))
(assert (not (= (_ bv5 8) x52)))
(assert (not (= x41 x42)))
(assert (not (= x41 (_ bv7 8))))
(assert (not (= x41 (_ bv4 8))))
(assert (not (= x41 x52)))
(assert (not (= x42 (_ bv7 8))))
(assert (not (= x42 (_ bv4 8))))
(assert (not (= x42 x52)))
(assert (not (= (_ bv7 8) (_ bv4 8))))
(assert (not (= (_ bv7 8) x52)))
(assert (not (= (_ bv4 8) x52)))
(assert (not (= (_ bv5 8) x34)))
(assert (not (= (_ bv5 8) (_ bv9 8))))
(assert (not (= (_ bv5 8) x43)))
(assert (not (= (_ bv5 8) x44)))
(assert (not (= (_ bv5 8) (_ bv8 8))))
(assert (not (= (_ bv5 8) x53)))
(assert (not (= (_ bv5 8) (_ bv2 8))))
(assert (not (= (_ bv5 8) (_ bv1 8))))
(assert (not (= x34 (_ bv9 8))))
(assert (not (= x34 x43)))
(assert (not (= x34 x44)))
(assert (not (= x34 (_ bv8 8))))
(assert (not (= x34 x53)))
(assert (not (= x34 (_ bv2 8))))
(assert (not (= x34 (_ bv1 8))))
(assert (not (= (_ bv9 8) x43)))
(assert (not (= (_ bv9 8) x44)))
(assert (not (= (_ bv9 8) (_ bv8 8))))
(assert (not (= (_ bv9 8) x53)))
(assert (not (= (_ bv9 8) (_ bv2 8))))
(assert (not (= (_ bv9 8) (_ bv1 8))))
(assert (not (= x43 x44)))
(assert (not (= x43 (_ bv8 8))))
(assert (not (= x43 x53)))
(assert (not (= x43 (_ bv2 8))))
(assert (not (= x43 (_ bv1 8))))
(assert (not (= x44 (_ bv8 8))))
(assert (not (= x44 x53)))
(assert (not (= x44 (_ bv2 8))))
(assert (not (= x44 (_ bv1 8))))
(assert (not (= (_ bv8 8) x53)))
(assert (not (= (_ bv8 8) (_ bv2 8))))
(assert (not (= (_ bv8 8) (_ bv1 8))))
(assert (not (= x53 (_ bv2 8))))
(assert (not (= x53 (_ bv1 8))))
(assert (not (= (_ bv2 8) (_ bv1 8))))
(assert (not (= (_ bv1 8) x37)))
(assert (not (= (_ bv1 8) x38)))
(assert (not (= (_ bv1 8) x46)))
(assert (not (= (_ bv1 8) (_ bv2 8))))
(assert (not (= (_ bv1 8) (_ bv4 8))))
(assert (not (= (_ bv1 8) x56)))
(assert (not (= (_ bv1 8) x57)))
(assert (not (= (_ bv1 8) (_ bv9 8))))
(assert (not (= x37 x38)))
(assert (not (= x37 x46)))
(assert (not (= x37 (_ bv2 8))))
(assert (not (= x37 (_ bv4 8))))
(assert (not (= x37 x56)))
(assert (not (= x37 x57)))
(assert (not (= x37 (_ bv9 8))))
(assert (not (= x38 x46)))
(assert (not (= x38 (_ bv2 8))))
(assert (not (= x38 (_ bv4 8))))
(assert (not (= x38 x56)))
(assert (not (= x38 x57)))
(assert (not (= x38 (_ bv9 8))))
(assert (not (= x46 (_ bv2 8))))
(assert (not (= x46 (_ bv4 8))))
(assert (not (= x46 x56)))
(assert (not (= x46 x57)))
(assert (not (= x46 (_ bv9 8))))
(assert (not (= (_ bv2 8) (_ bv4 8))))
(assert (not (= (_ bv2 8) x56)))
(assert (not (= (_ bv2 8) x57)))
(assert (not (= (_ bv2 8) (_ bv9 8))))
(assert (not (= (_ bv4 8) x56)))
(assert (not (= (_ bv4 8) x57)))
(assert (not (= (_ bv4 8) (_ bv9 8))))
(assert (not (= x56 x57)))
(assert (not (= x56 (_ bv9 8))))
(assert (not (= x57 (_ bv9 8))))
(assert (not (= x60 (_ bv8 8))))
(assert (not (= x60 x62)))
(assert (not (= x60 (_ bv2 8))))
(assert (not (= x60 x71)))
(assert (not (= x60 x72)))
(assert (not (= x60 x80)))
(assert (not (= x60 (_ bv5 8))))
(assert (not (= x60 (_ bv6 8))))
(assert (not (= (_ bv8 8) x62)))
(assert (not (= (_ bv8 8) (_ bv2 8))))
(assert (not (= (_ bv8 8) x71)))
(assert (not (= (_ bv8 8) x72)))
(assert (not (= (_ bv8 8) x80)))
(assert (not (= (_ bv8 8) (_ bv5 8))))
(assert (not (= (_ bv8 8) (_ bv6 8))))
(assert (not (= x62 (_ bv2 8))))
(assert (not (= x62 x71)))
(assert (not (= x62 x72)))
(assert (not (= x62 x80)))
(assert (not (= x62 (_ bv5 8))))
(assert (not (= x62 (_ bv6 8))))
(assert (not (= (_ bv2 8) x71)))
(assert (not (= (_ bv2 8) x72)))
(assert (not (= (_ bv2 8) x80)))
(assert (not (= (_ bv2 8) (_ bv5 8))))
(assert (not (= (_ bv2 8) (_ bv6 8))))
(assert (not (= x71 x72)))
(assert (not (= x71 x80)))
(assert (not (= x71 (_ bv5 8))))
(assert (not (= x71 (_ bv6 8))))
(assert (not (= x72 x80)))
(assert (not (= x72 (_ bv5 8))))
(assert (not (= x72 (_ bv6 8))))
(assert (not (= x80 (_ bv5 8))))
(assert (not (= x80 (_ bv6 8))))
(assert (not (= (_ bv5 8) (_ bv6 8))))
(assert (not (= (_ bv6 8) x64)))
(assert (not (= (_ bv6 8) (_ bv2 8))))
(assert (not (= (_ bv6 8) x73)))
(assert (not (= (_ bv6 8) x74)))
(assert (not (= (_ bv6 8) x75)))
(assert (not (= (_ bv6 8) (_ bv9 8))))
(assert (not (= (_ bv6 8) (_ bv3 8))))
(assert (not (= (_ bv6 8) x85)))
(assert (not (= x64 (_ bv2 8))))
(assert (not (= x64 x73)))
(assert (not (= x64 x74)))
(assert (not (= x64 x75)))
(assert (not (= x64 (_ bv9 8))))
(assert (not (= x64 (_ bv3 8))))
(assert (not (= x64 x85)))
(assert (not (= (_ bv2 8) x73)))
(assert (not (= (_ bv2 8) x74)))
(assert (not (= (_ bv2 8) x75)))
(assert (not (= (_ bv2 8) (_ bv9 8))))
(assert (not (= (_ bv2 8) (_ bv3 8))))
(assert (not (= (_ bv2 8) x85)))
(assert (not (= x73 x74)))
(assert (not (= x73 x75)))
(assert (not (= x73 (_ bv9 8))))
(assert (not (= x73 (_ bv3 8))))
(assert (not (= x73 x85)))
(assert (not (= x74 x75)))
(assert (not (= x74 (_ bv9 8))))
(assert (not (= x74 (_ bv3 8))))
(assert (not (= x74 x85)))
(assert (not (= x75 (_ bv9 8))))
(assert (not (= x75 (_ bv3 8))))
(assert (not (= x75 x85)))
(assert (not (= (_ bv9 8) (_ bv3 8))))
(assert (not (= (_ bv9 8) x85)))
(assert (not (= (_ bv3 8) x85)))
(assert (not (= x66 (_ bv3 8))))
(assert (not (= x66 x68)))
(assert (not (= x66 x76)))
(assert (not (= x66 x77)))
(assert (not (= x66 (_ bv1 8))))
(assert (not (= x66 x86)))
(assert (not (= x66 (_ bv7 8))))
(assert (not (= x66 x88)))
(assert (not (= (_ bv3 8) x68)))
(assert (not (= (_ bv3 8) x76)))
(assert (not (= (_ bv3 8) x77)))
(assert (not (= (_ bv3 8) (_ bv1 8))))
(assert (not (= (_ bv3 8) x86)))
(assert (not (= (_ bv3 8) (_ bv7 8))))
(assert (not (= (_ bv3 8) x88)))
(assert (not (= x68 x76)))
(assert (not (= x68 x77)))
(assert (not (= x68 (_ bv1 8))))
(assert (not (= x68 x86)))
(assert (not (= x68 (_ bv7 8))))
(assert (not (= x68 x88)))
(assert (not (= x76 x77)))
(assert (not (= x76 (_ bv1 8))))
(assert (not (= x76 x86)))
(assert (not (= x76 (_ bv7 8))))
(assert (not (= x76 x88)))
(assert (not (= x77 (_ bv1 8))))
(assert (not (= x77 x86)))
(assert (not (= x77 (_ bv7 8))))
(assert (not (= x77 x88)))
(assert (not (= (_ bv1 8) x86)))
(assert (not (= (_ bv1 8) (_ bv7 8))))
(assert (not (= (_ bv1 8) x88)))
(assert (not (= x86 (_ bv7 8))))
(assert (not (= x86 x88)))
(assert (not (= (_ bv7 8) x88)))
(check-sat)
(exit)
